p tw 67 73
1 2
2 13
3 4
3 27
4 5
5 6
5 41
6 60
7 8
8 9
9 10
10 11
11 12
12 14
13 24
14 15
15 16
16 17
17 18
18 19
19 20
20 21
21 22
22 23
22 25
23 63
24 35
25 26
26 27
27 28
28 29
29 30
30 31
31 32
32 33
33 34
34 36
35 46
36 37
37 38
37 39
38 63
39 40
40 41
41 42
42 43
43 44
44 45
45 47
46 57
47 48
48 49
49 50
50 51
51 52
52 53
53 54
54 55
54 56
55 63
56 58
57 65
57 7
58 59
59 60
60 61
61 62
62 63
63 64
65 66
66 67
66 9
67 3
